(declare-datatypes (T1 T2 T3 T4 T5)
 ((Recv (mk-recv (match T1) (ep T2) (var T3) (event T4) (nearestwait T5)))))
(declare-datatypes (T1 T2 T3 T4)
((Send (mk-send (match T1) (ep T2) (value T3) (event T4)))))

(define-fun HB ((a Int) (b Int)) Bool
  (if(< a b)
 true
 false))
(define-fun HB* ((a Int) (b Int)) Bool
  (if(= a (- b 1))
 true
 false))

(define-fun MATCH ((r (Recv Int Int Int Int Int)) (s (Send Int Int Int Int))) Bool
(if(and (= (ep r) (ep s)) (= (var r) (value s))
(HB* (event s) (event r)) (= (match r) (event s))
(= (match s) (event r)))
true
false
)
)

(declare-const T0_0 Int)
(declare-const task_0 Int)
(declare-const T0_1 Int)
(declare-const result_0 Int)
(declare-const T0_2 Int)
(declare-const answer_0 Int)
(declare-const T0_3 Int)
(declare-const T0_4 Int)
(declare-const T0_5 Int)
(declare-const task_1 Int)
(declare-const T0_6 Int)
(declare-const T0_7 Int)
(declare-const T0_8 Int)
(declare-const task_2 Int)
(declare-const T0_9 Int)
(declare-const T0_10 Int)
(declare-const T0_11 Int)
(declare-const task_3 Int)
(declare-const T0_12 Int)
(declare-const T0_13 Int)
(declare-const T0_14 Int)
(declare-const task_4 Int)
(declare-const T0_15 Int)
(declare-const T0_16 Int)
(declare-const T0_17 Int)
(declare-const task_5 Int)
(declare-const T0_18 Int)
(declare-const T0_19 Int)
(declare-const T0_20 Int)
(declare-const task_6 Int)
(declare-const T0_21 Int)
(declare-const T0_22 Int)
(declare-const T0_23 Int)
(declare-const task_7 Int)
(declare-const T0_24 Int)
(declare-const T0_25 Int)
(declare-const T0_26 Int)
(declare-const task_8 Int)
(declare-const T0_27 Int)
(declare-const T0_28 Int)
(declare-const T0_29 Int)
(declare-const task_9 Int)
(declare-const T0_30 Int)
(declare-const T0_31 Int)
(declare-const T0_32 Int)
(declare-const task_10 Int)
(declare-const T0_33 Int)
(declare-const T0_34 Int)
(declare-const T0_35 Int)
(declare-const task_11 Int)
(declare-const T0_36 Int)
(declare-const T0_37 Int)
(declare-const T0_38 Int)
(declare-const task_12 Int)
(declare-const T0_39 Int)
(declare-const T0_40 Int)
(declare-const T0_41 Int)
(declare-const task_13 Int)
(declare-const T0_42 Int)
(declare-const T0_43 Int)
(declare-const T0_44 Int)
(declare-const task_14 Int)
(declare-const T0_45 Int)
(declare-const T0_46 Int)
(declare-const T0_47 Int)
(declare-const task_15 Int)
(declare-const T0_48 Int)
(declare-const result_0_1 Int)
(declare-const T0_49 Int)
(declare-const T0_50 Int)
(declare-const answer_1 Int)
(declare-const result_1 Int)
(declare-const T0_51 Int)
(declare-const result_0_2 Int)
(declare-const T0_52 Int)
(declare-const T0_53 Int)
(declare-const answer_2 Int)
(declare-const result_2 Int)
(declare-const T0_54 Int)
(declare-const result_0_3 Int)
(declare-const T0_55 Int)
(declare-const T0_56 Int)
(declare-const answer_3 Int)
(declare-const result_3 Int)
(declare-const T0_57 Int)
(declare-const result_0_4 Int)
(declare-const T0_58 Int)
(declare-const T0_59 Int)
(declare-const answer_4 Int)
(declare-const result_4 Int)
(declare-const T0_60 Int)
(declare-const result_0_5 Int)
(declare-const T0_61 Int)
(declare-const T0_62 Int)
(declare-const answer_5 Int)
(declare-const result_5 Int)
(declare-const T0_63 Int)
(declare-const result_0_6 Int)
(declare-const T0_64 Int)
(declare-const T0_65 Int)
(declare-const answer_6 Int)
(declare-const result_6 Int)
(declare-const T0_66 Int)
(declare-const result_0_7 Int)
(declare-const T0_67 Int)
(declare-const T0_68 Int)
(declare-const answer_7 Int)
(declare-const result_7 Int)
(declare-const T0_69 Int)
(declare-const result_0_8 Int)
(declare-const T0_70 Int)
(declare-const T0_71 Int)
(declare-const answer_8 Int)
(declare-const result_8 Int)
(declare-const T0_72 Int)
(declare-const result_0_9 Int)
(declare-const T0_73 Int)
(declare-const T0_74 Int)
(declare-const answer_9 Int)
(declare-const result_9 Int)
(declare-const T0_75 Int)
(declare-const result_0_10 Int)
(declare-const T0_76 Int)
(declare-const T0_77 Int)
(declare-const answer_10 Int)
(declare-const result_10 Int)
(declare-const T0_78 Int)
(declare-const result_0_11 Int)
(declare-const T0_79 Int)
(declare-const T0_80 Int)
(declare-const answer_11 Int)
(declare-const result_11 Int)
(declare-const T0_81 Int)
(declare-const result_0_12 Int)
(declare-const T0_82 Int)
(declare-const T0_83 Int)
(declare-const answer_12 Int)
(declare-const result_12 Int)
(declare-const T0_84 Int)
(declare-const result_0_13 Int)
(declare-const T0_85 Int)
(declare-const T0_86 Int)
(declare-const answer_13 Int)
(declare-const result_13 Int)
(declare-const T0_87 Int)
(declare-const result_0_14 Int)
(declare-const T0_88 Int)
(declare-const T0_89 Int)
(declare-const answer_14 Int)
(declare-const result_14 Int)
(declare-const T0_90 Int)
(declare-const result_0_15 Int)
(declare-const T0_91 Int)
(declare-const T0_92 Int)
(declare-const answer_15 Int)
(declare-const result_15 Int)
(declare-const T0_93 Int)
(declare-const T1_0 Int)
(declare-const task_1_0 Int)
(declare-const T1_1 Int)
(declare-const T1_2 Int)
(declare-const result_1_0 Int)
(declare-const T1_3 Int)
(declare-const T2_0 Int)
(declare-const task_2_0 Int)
(declare-const T2_1 Int)
(declare-const T2_2 Int)
(declare-const result_2_0 Int)
(declare-const T2_3 Int)
(declare-const T3_0 Int)
(declare-const task_3_0 Int)
(declare-const T3_1 Int)
(declare-const T3_2 Int)
(declare-const result_3_0 Int)
(declare-const T3_3 Int)
(declare-const T4_0 Int)
(declare-const task_4_0 Int)
(declare-const T4_1 Int)
(declare-const T4_2 Int)
(declare-const result_4_0 Int)
(declare-const T4_3 Int)
(declare-const T5_0 Int)
(declare-const task_5_0 Int)
(declare-const T5_1 Int)
(declare-const T5_2 Int)
(declare-const result_5_0 Int)
(declare-const T5_3 Int)
(declare-const T6_0 Int)
(declare-const task_6_0 Int)
(declare-const T6_1 Int)
(declare-const T6_2 Int)
(declare-const result_6_0 Int)
(declare-const T6_3 Int)
(declare-const T7_0 Int)
(declare-const task_7_0 Int)
(declare-const T7_1 Int)
(declare-const T7_2 Int)
(declare-const result_7_0 Int)
(declare-const T7_3 Int)
(declare-const T8_0 Int)
(declare-const task_8_0 Int)
(declare-const T8_1 Int)
(declare-const T8_2 Int)
(declare-const result_8_0 Int)
(declare-const T8_3 Int)
(declare-const T9_0 Int)
(declare-const task_9_0 Int)
(declare-const T9_1 Int)
(declare-const T9_2 Int)
(declare-const result_9_0 Int)
(declare-const T9_3 Int)
(declare-const T10_0 Int)
(declare-const task_10_0 Int)
(declare-const T10_1 Int)
(declare-const T10_2 Int)
(declare-const result_10_0 Int)
(declare-const T10_3 Int)
(declare-const T11_0 Int)
(declare-const task_11_0 Int)
(declare-const T11_1 Int)
(declare-const T11_2 Int)
(declare-const result_11_0 Int)
(declare-const T11_3 Int)
(declare-const T12_0 Int)
(declare-const task_12_0 Int)
(declare-const T12_1 Int)
(declare-const T12_2 Int)
(declare-const result_12_0 Int)
(declare-const T12_3 Int)
(declare-const T13_0 Int)
(declare-const task_13_0 Int)
(declare-const T13_1 Int)
(declare-const T13_2 Int)
(declare-const result_13_0 Int)
(declare-const T13_3 Int)
(declare-const T14_0 Int)
(declare-const task_14_0 Int)
(declare-const T14_1 Int)
(declare-const T14_2 Int)
(declare-const result_14_0 Int)
(declare-const T14_3 Int)
(declare-const T15_0 Int)
(declare-const task_15_0 Int)
(declare-const T15_1 Int)
(declare-const T15_2 Int)
(declare-const result_15_0 Int)
(declare-const T15_3 Int)

(assert (distinct T0_0 T0_1 T0_2 T0_3 T0_4 T0_5 T0_6 T0_7 T0_8 T0_9 T0_10 T0_11 T0_12 T0_13 T0_14 T0_15 T0_16 T0_17 T0_18 T0_19 T0_20 T0_21 T0_22 T0_23 T0_24 T0_25 T0_26 T0_27 T0_28 T0_29 T0_30 T0_31 T0_32 T0_33 T0_34 T0_35 T0_36 T0_37 T0_38 T0_39 T0_40 T0_41 T0_42 T0_43 T0_44 T0_45 T0_46 T0_47 T0_48 T0_49 T0_50 T0_51 T0_52 T0_53 T0_54 T0_55 T0_56 T0_57 T0_58 T0_59 T0_60 T0_61 T0_62 T0_63 T0_64 T0_65 T0_66 T0_67 T0_68 T0_69 T0_70 T0_71 T0_72 T0_73 T0_74 T0_75 T0_76 T0_77 T0_78 T0_79 T0_80 T0_81 T0_82 T0_83 T0_84 T0_85 T0_86 T0_87 T0_88 T0_89 T0_90 T0_91 T0_92 T0_93 T1_0 T1_1 T1_2 T1_3 T2_0 T2_1 T2_2 T2_3 T3_0 T3_1 T3_2 T3_3 T4_0 T4_1 T4_2 T4_3 T5_0 T5_1 T5_2 T5_3 T6_0 T6_1 T6_2 T6_3 T7_0 T7_1 T7_2 T7_3 T8_0 T8_1 T8_2 T8_3 T9_0 T9_1 T9_2 T9_3 T10_0 T10_1 T10_2 T10_3 T11_0 T11_1 T11_2 T11_3 T12_0 T12_1 T12_2 T12_3 T13_0 T13_1 T13_2 T13_3 T14_0 T14_1 T14_2 T14_3 T15_0 T15_1 T15_2 T15_3 ))

(declare-const sendT0_3 (Send Int Int Int Int))
(assert (and (= (ep sendT0_3) 1) (= (event sendT0_3) T0_3) (= (value sendT0_3) task_0)))
(declare-const sendT0_6 (Send Int Int Int Int))
(assert (and (= (ep sendT0_6) 2) (= (event sendT0_6) T0_6) (= (value sendT0_6) task_1)))
(declare-const sendT0_9 (Send Int Int Int Int))
(assert (and (= (ep sendT0_9) 3) (= (event sendT0_9) T0_9) (= (value sendT0_9) task_2)))
(declare-const sendT0_12 (Send Int Int Int Int))
(assert (and (= (ep sendT0_12) 4) (= (event sendT0_12) T0_12) (= (value sendT0_12) task_3)))
(declare-const sendT0_15 (Send Int Int Int Int))
(assert (and (= (ep sendT0_15) 5) (= (event sendT0_15) T0_15) (= (value sendT0_15) task_4)))
(declare-const sendT0_18 (Send Int Int Int Int))
(assert (and (= (ep sendT0_18) 6) (= (event sendT0_18) T0_18) (= (value sendT0_18) task_5)))
(declare-const sendT0_21 (Send Int Int Int Int))
(assert (and (= (ep sendT0_21) 7) (= (event sendT0_21) T0_21) (= (value sendT0_21) task_6)))
(declare-const sendT0_24 (Send Int Int Int Int))
(assert (and (= (ep sendT0_24) 8) (= (event sendT0_24) T0_24) (= (value sendT0_24) task_7)))
(declare-const sendT0_27 (Send Int Int Int Int))
(assert (and (= (ep sendT0_27) 9) (= (event sendT0_27) T0_27) (= (value sendT0_27) task_8)))
(declare-const sendT0_30 (Send Int Int Int Int))
(assert (and (= (ep sendT0_30) 10) (= (event sendT0_30) T0_30) (= (value sendT0_30) task_9)))
(declare-const sendT0_33 (Send Int Int Int Int))
(assert (and (= (ep sendT0_33) 11) (= (event sendT0_33) T0_33) (= (value sendT0_33) task_10)))
(declare-const sendT0_36 (Send Int Int Int Int))
(assert (and (= (ep sendT0_36) 12) (= (event sendT0_36) T0_36) (= (value sendT0_36) task_11)))
(declare-const sendT0_39 (Send Int Int Int Int))
(assert (and (= (ep sendT0_39) 13) (= (event sendT0_39) T0_39) (= (value sendT0_39) task_12)))
(declare-const sendT0_42 (Send Int Int Int Int))
(assert (and (= (ep sendT0_42) 14) (= (event sendT0_42) T0_42) (= (value sendT0_42) task_13)))
(declare-const sendT0_45 (Send Int Int Int Int))
(assert (and (= (ep sendT0_45) 15) (= (event sendT0_45) T0_45) (= (value sendT0_45) task_14)))
(declare-const recvT0_48 (Recv Int Int Int Int Int))
(assert (and (= (ep recvT0_48) 0) (= (event recvT0_48) T0_48) (= (var recvT0_48) result_0_1)))
(assert (= (nearestwait recvT0_48) T0_49))
(declare-const recvT0_51 (Recv Int Int Int Int Int))
(assert (and (= (ep recvT0_51) 0) (= (event recvT0_51) T0_51) (= (var recvT0_51) result_0_2)))
(assert (= (nearestwait recvT0_51) T0_52))
(declare-const recvT0_54 (Recv Int Int Int Int Int))
(assert (and (= (ep recvT0_54) 0) (= (event recvT0_54) T0_54) (= (var recvT0_54) result_0_3)))
(assert (= (nearestwait recvT0_54) T0_55))
(declare-const recvT0_57 (Recv Int Int Int Int Int))
(assert (and (= (ep recvT0_57) 0) (= (event recvT0_57) T0_57) (= (var recvT0_57) result_0_4)))
(assert (= (nearestwait recvT0_57) T0_58))
(declare-const recvT0_60 (Recv Int Int Int Int Int))
(assert (and (= (ep recvT0_60) 0) (= (event recvT0_60) T0_60) (= (var recvT0_60) result_0_5)))
(assert (= (nearestwait recvT0_60) T0_61))
(declare-const recvT0_63 (Recv Int Int Int Int Int))
(assert (and (= (ep recvT0_63) 0) (= (event recvT0_63) T0_63) (= (var recvT0_63) result_0_6)))
(assert (= (nearestwait recvT0_63) T0_64))
(declare-const recvT0_66 (Recv Int Int Int Int Int))
(assert (and (= (ep recvT0_66) 0) (= (event recvT0_66) T0_66) (= (var recvT0_66) result_0_7)))
(assert (= (nearestwait recvT0_66) T0_67))
(declare-const recvT0_69 (Recv Int Int Int Int Int))
(assert (and (= (ep recvT0_69) 0) (= (event recvT0_69) T0_69) (= (var recvT0_69) result_0_8)))
(assert (= (nearestwait recvT0_69) T0_70))
(declare-const recvT0_72 (Recv Int Int Int Int Int))
(assert (and (= (ep recvT0_72) 0) (= (event recvT0_72) T0_72) (= (var recvT0_72) result_0_9)))
(assert (= (nearestwait recvT0_72) T0_73))
(declare-const recvT0_75 (Recv Int Int Int Int Int))
(assert (and (= (ep recvT0_75) 0) (= (event recvT0_75) T0_75) (= (var recvT0_75) result_0_10)))
(assert (= (nearestwait recvT0_75) T0_76))
(declare-const recvT0_78 (Recv Int Int Int Int Int))
(assert (and (= (ep recvT0_78) 0) (= (event recvT0_78) T0_78) (= (var recvT0_78) result_0_11)))
(assert (= (nearestwait recvT0_78) T0_79))
(declare-const recvT0_81 (Recv Int Int Int Int Int))
(assert (and (= (ep recvT0_81) 0) (= (event recvT0_81) T0_81) (= (var recvT0_81) result_0_12)))
(assert (= (nearestwait recvT0_81) T0_82))
(declare-const recvT0_84 (Recv Int Int Int Int Int))
(assert (and (= (ep recvT0_84) 0) (= (event recvT0_84) T0_84) (= (var recvT0_84) result_0_13)))
(assert (= (nearestwait recvT0_84) T0_85))
(declare-const recvT0_87 (Recv Int Int Int Int Int))
(assert (and (= (ep recvT0_87) 0) (= (event recvT0_87) T0_87) (= (var recvT0_87) result_0_14)))
(assert (= (nearestwait recvT0_87) T0_88))
(declare-const recvT0_90 (Recv Int Int Int Int Int))
(assert (and (= (ep recvT0_90) 0) (= (event recvT0_90) T0_90) (= (var recvT0_90) result_0_15)))
(assert (= (nearestwait recvT0_90) T0_91))
(declare-const recvT1_0 (Recv Int Int Int Int Int))
(assert (and (= (ep recvT1_0) 1) (= (event recvT1_0) T1_0) (= (var recvT1_0) task_1_0)))
(assert (= (nearestwait recvT1_0) T1_1))
(declare-const sendT1_2 (Send Int Int Int Int))
(assert (and (= (ep sendT1_2) 0) (= (event sendT1_2) T1_2) (= (value sendT1_2) result_1_0)))
(declare-const recvT2_0 (Recv Int Int Int Int Int))
(assert (and (= (ep recvT2_0) 2) (= (event recvT2_0) T2_0) (= (var recvT2_0) task_2_0)))
(assert (= (nearestwait recvT2_0) T2_1))
(declare-const sendT2_2 (Send Int Int Int Int))
(assert (and (= (ep sendT2_2) 0) (= (event sendT2_2) T2_2) (= (value sendT2_2) result_2_0)))
(declare-const recvT3_0 (Recv Int Int Int Int Int))
(assert (and (= (ep recvT3_0) 3) (= (event recvT3_0) T3_0) (= (var recvT3_0) task_3_0)))
(assert (= (nearestwait recvT3_0) T3_1))
(declare-const sendT3_2 (Send Int Int Int Int))
(assert (and (= (ep sendT3_2) 0) (= (event sendT3_2) T3_2) (= (value sendT3_2) result_3_0)))
(declare-const recvT4_0 (Recv Int Int Int Int Int))
(assert (and (= (ep recvT4_0) 4) (= (event recvT4_0) T4_0) (= (var recvT4_0) task_4_0)))
(assert (= (nearestwait recvT4_0) T4_1))
(declare-const sendT4_2 (Send Int Int Int Int))
(assert (and (= (ep sendT4_2) 0) (= (event sendT4_2) T4_2) (= (value sendT4_2) result_4_0)))
(declare-const recvT5_0 (Recv Int Int Int Int Int))
(assert (and (= (ep recvT5_0) 5) (= (event recvT5_0) T5_0) (= (var recvT5_0) task_5_0)))
(assert (= (nearestwait recvT5_0) T5_1))
(declare-const sendT5_2 (Send Int Int Int Int))
(assert (and (= (ep sendT5_2) 0) (= (event sendT5_2) T5_2) (= (value sendT5_2) result_5_0)))
(declare-const recvT6_0 (Recv Int Int Int Int Int))
(assert (and (= (ep recvT6_0) 6) (= (event recvT6_0) T6_0) (= (var recvT6_0) task_6_0)))
(assert (= (nearestwait recvT6_0) T6_1))
(declare-const sendT6_2 (Send Int Int Int Int))
(assert (and (= (ep sendT6_2) 0) (= (event sendT6_2) T6_2) (= (value sendT6_2) result_6_0)))
(declare-const recvT7_0 (Recv Int Int Int Int Int))
(assert (and (= (ep recvT7_0) 7) (= (event recvT7_0) T7_0) (= (var recvT7_0) task_7_0)))
(assert (= (nearestwait recvT7_0) T7_1))
(declare-const sendT7_2 (Send Int Int Int Int))
(assert (and (= (ep sendT7_2) 0) (= (event sendT7_2) T7_2) (= (value sendT7_2) result_7_0)))
(declare-const recvT8_0 (Recv Int Int Int Int Int))
(assert (and (= (ep recvT8_0) 8) (= (event recvT8_0) T8_0) (= (var recvT8_0) task_8_0)))
(assert (= (nearestwait recvT8_0) T8_1))
(declare-const sendT8_2 (Send Int Int Int Int))
(assert (and (= (ep sendT8_2) 0) (= (event sendT8_2) T8_2) (= (value sendT8_2) result_8_0)))
(declare-const recvT9_0 (Recv Int Int Int Int Int))
(assert (and (= (ep recvT9_0) 9) (= (event recvT9_0) T9_0) (= (var recvT9_0) task_9_0)))
(assert (= (nearestwait recvT9_0) T9_1))
(declare-const sendT9_2 (Send Int Int Int Int))
(assert (and (= (ep sendT9_2) 0) (= (event sendT9_2) T9_2) (= (value sendT9_2) result_9_0)))
(declare-const recvT10_0 (Recv Int Int Int Int Int))
(assert (and (= (ep recvT10_0) 10) (= (event recvT10_0) T10_0) (= (var recvT10_0) task_10_0)))
(assert (= (nearestwait recvT10_0) T10_1))
(declare-const sendT10_2 (Send Int Int Int Int))
(assert (and (= (ep sendT10_2) 0) (= (event sendT10_2) T10_2) (= (value sendT10_2) result_10_0)))
(declare-const recvT11_0 (Recv Int Int Int Int Int))
(assert (and (= (ep recvT11_0) 11) (= (event recvT11_0) T11_0) (= (var recvT11_0) task_11_0)))
(assert (= (nearestwait recvT11_0) T11_1))
(declare-const sendT11_2 (Send Int Int Int Int))
(assert (and (= (ep sendT11_2) 0) (= (event sendT11_2) T11_2) (= (value sendT11_2) result_11_0)))
(declare-const recvT12_0 (Recv Int Int Int Int Int))
(assert (and (= (ep recvT12_0) 12) (= (event recvT12_0) T12_0) (= (var recvT12_0) task_12_0)))
(assert (= (nearestwait recvT12_0) T12_1))
(declare-const sendT12_2 (Send Int Int Int Int))
(assert (and (= (ep sendT12_2) 0) (= (event sendT12_2) T12_2) (= (value sendT12_2) result_12_0)))
(declare-const recvT13_0 (Recv Int Int Int Int Int))
(assert (and (= (ep recvT13_0) 13) (= (event recvT13_0) T13_0) (= (var recvT13_0) task_13_0)))
(assert (= (nearestwait recvT13_0) T13_1))
(declare-const sendT13_2 (Send Int Int Int Int))
(assert (and (= (ep sendT13_2) 0) (= (event sendT13_2) T13_2) (= (value sendT13_2) result_13_0)))
(declare-const recvT14_0 (Recv Int Int Int Int Int))
(assert (and (= (ep recvT14_0) 14) (= (event recvT14_0) T14_0) (= (var recvT14_0) task_14_0)))
(assert (= (nearestwait recvT14_0) T14_1))
(declare-const sendT14_2 (Send Int Int Int Int))
(assert (and (= (ep sendT14_2) 0) (= (event sendT14_2) T14_2) (= (value sendT14_2) result_14_0)))
(declare-const recvT15_0 (Recv Int Int Int Int Int))
(assert (and (= (ep recvT15_0) 15) (= (event recvT15_0) T15_0) (= (var recvT15_0) task_15_0)))
(assert (= (nearestwait recvT15_0) T15_1))
(declare-const sendT15_2 (Send Int Int Int Int))
(assert (and (= (ep sendT15_2) 0) (= (event sendT15_2) T15_2) (= (value sendT15_2) result_15_0)))

(assert (and
(HB T0_3 T0_5) (HB T0_3 T0_6) (HB T0_6 T0_8) (HB T0_6 T0_9) (HB T0_9 T0_11) (HB T0_9 T0_12) (HB T0_12 T0_14) (HB T0_12 T0_15) (HB T0_15 T0_17) (HB T0_15 T0_18) (HB T0_18 T0_20) (HB T0_18 T0_21) (HB T0_21 T0_23) (HB T0_21 T0_24) (HB T0_24 T0_26) (HB T0_24 T0_27) (HB T0_27 T0_29) (HB T0_27 T0_30) (HB T0_30 T0_32) (HB T0_30 T0_33) (HB T0_33 T0_35) (HB T0_33 T0_36) (HB T0_36 T0_38) (HB T0_36 T0_39) (HB T0_39 T0_41) (HB T0_39 T0_42) (HB T0_42 T0_44) (HB T0_42 T0_45) (HB T0_45 T0_47) (HB T0_45 T0_48) (HB T0_48 T0_49) (HB T0_45 T0_50) (HB T0_45 T0_51) (HB T0_48 T0_51) (HB T0_51 T0_52) (HB T0_45 T0_53) (HB T0_45 T0_54) (HB T0_51 T0_54) (HB T0_54 T0_55) (HB T0_45 T0_56) (HB T0_45 T0_57) (HB T0_54 T0_57) (HB T0_57 T0_58) (HB T0_45 T0_59) (HB T0_45 T0_60) (HB T0_57 T0_60) (HB T0_60 T0_61) (HB T0_45 T0_62) (HB T0_45 T0_63) (HB T0_60 T0_63) (HB T0_63 T0_64) (HB T0_45 T0_65) (HB T0_45 T0_66) (HB T0_63 T0_66) (HB T0_66 T0_67) (HB T0_45 T0_68) (HB T0_45 T0_69) (HB T0_66 T0_69) (HB T0_69 T0_70) (HB T0_45 T0_71) (HB T0_45 T0_72) (HB T0_69 T0_72) (HB T0_72 T0_73) (HB T0_45 T0_74) (HB T0_45 T0_75) (HB T0_72 T0_75) (HB T0_75 T0_76) (HB T0_45 T0_77) (HB T0_45 T0_78) (HB T0_75 T0_78) (HB T0_78 T0_79) (HB T0_45 T0_80) (HB T0_45 T0_81) (HB T0_78 T0_81) (HB T0_81 T0_82) (HB T0_45 T0_83) (HB T0_45 T0_84) (HB T0_81 T0_84) (HB T0_84 T0_85) (HB T0_45 T0_86) (HB T0_45 T0_87) (HB T0_84 T0_87) (HB T0_87 T0_88) (HB T0_45 T0_89) (HB T0_45 T0_90) (HB T0_87 T0_90) (HB T0_90 T0_91) (HB T0_45 T0_92) (HB T0_45 T0_93) (HB T1_0 T1_1) (HB T1_1 T1_2) (HB T2_0 T2_1) (HB T2_1 T2_2) (HB T3_0 T3_1) (HB T3_1 T3_2) (HB T4_0 T4_1) (HB T4_1 T4_2) (HB T5_0 T5_1) (HB T5_1 T5_2) (HB T6_0 T6_1) (HB T6_1 T6_2) (HB T7_0 T7_1) (HB T7_1 T7_2) (HB T8_0 T8_1) (HB T8_1 T8_2) (HB T9_0 T9_1) (HB T9_1 T9_2) (HB T10_0 T10_1) (HB T10_1 T10_2) (HB T11_0 T11_1) (HB T11_1 T11_2) (HB T12_0 T12_1) (HB T12_1 T12_2) (HB T13_0 T13_1) (HB T13_1 T13_2) (HB T14_0 T14_1) (HB T14_1 T14_2) (HB T15_0 T15_1) (HB T15_1 T15_2) ))


(assert (and
(or (MATCH recvT6_0 sendT0_18) )
(or (MATCH recvT13_0 sendT0_39) )
(or (MATCH recvT0_69 sendT1_2) (MATCH recvT0_69 sendT2_2) (MATCH recvT0_69 sendT3_2) (MATCH recvT0_69 sendT4_2) (MATCH recvT0_69 sendT5_2) (MATCH recvT0_69 sendT6_2) (MATCH recvT0_69 sendT7_2) (MATCH recvT0_69 sendT8_2) (MATCH recvT0_69 sendT9_2) (MATCH recvT0_69 sendT10_2) (MATCH recvT0_69 sendT11_2) (MATCH recvT0_69 sendT12_2) (MATCH recvT0_69 sendT13_2) (MATCH recvT0_69 sendT14_2) (MATCH recvT0_69 sendT15_2) )
(or (MATCH recvT8_0 sendT0_24) )
(or (MATCH recvT15_0 sendT0_45) )
(or (MATCH recvT0_66 sendT1_2) (MATCH recvT0_66 sendT2_2) (MATCH recvT0_66 sendT3_2) (MATCH recvT0_66 sendT4_2) (MATCH recvT0_66 sendT5_2) (MATCH recvT0_66 sendT6_2) (MATCH recvT0_66 sendT7_2) (MATCH recvT0_66 sendT8_2) (MATCH recvT0_66 sendT9_2) (MATCH recvT0_66 sendT10_2) (MATCH recvT0_66 sendT11_2) (MATCH recvT0_66 sendT12_2) (MATCH recvT0_66 sendT13_2) (MATCH recvT0_66 sendT14_2) (MATCH recvT0_66 sendT15_2) )
(or (MATCH recvT0_63 sendT1_2) (MATCH recvT0_63 sendT2_2) (MATCH recvT0_63 sendT3_2) (MATCH recvT0_63 sendT4_2) (MATCH recvT0_63 sendT5_2) (MATCH recvT0_63 sendT6_2) (MATCH recvT0_63 sendT7_2) (MATCH recvT0_63 sendT8_2) (MATCH recvT0_63 sendT9_2) (MATCH recvT0_63 sendT10_2) (MATCH recvT0_63 sendT11_2) (MATCH recvT0_63 sendT12_2) (MATCH recvT0_63 sendT13_2) (MATCH recvT0_63 sendT14_2) (MATCH recvT0_63 sendT15_2) )
(or (MATCH recvT1_0 sendT0_3) )
(or (MATCH recvT0_60 sendT1_2) (MATCH recvT0_60 sendT2_2) (MATCH recvT0_60 sendT3_2) (MATCH recvT0_60 sendT4_2) (MATCH recvT0_60 sendT5_2) (MATCH recvT0_60 sendT6_2) (MATCH recvT0_60 sendT7_2) (MATCH recvT0_60 sendT8_2) (MATCH recvT0_60 sendT9_2) (MATCH recvT0_60 sendT10_2) (MATCH recvT0_60 sendT11_2) (MATCH recvT0_60 sendT12_2) (MATCH recvT0_60 sendT13_2) (MATCH recvT0_60 sendT14_2) (MATCH recvT0_60 sendT15_2) )
(or (MATCH recvT0_90 sendT1_2) (MATCH recvT0_90 sendT2_2) (MATCH recvT0_90 sendT3_2) (MATCH recvT0_90 sendT4_2) (MATCH recvT0_90 sendT5_2) (MATCH recvT0_90 sendT6_2) (MATCH recvT0_90 sendT7_2) (MATCH recvT0_90 sendT8_2) (MATCH recvT0_90 sendT9_2) (MATCH recvT0_90 sendT10_2) (MATCH recvT0_90 sendT11_2) (MATCH recvT0_90 sendT12_2) (MATCH recvT0_90 sendT13_2) (MATCH recvT0_90 sendT14_2) (MATCH recvT0_90 sendT15_2) )
(or (MATCH recvT3_0 sendT0_9) )
(or (MATCH recvT10_0 sendT0_30) )
(or (MATCH recvT0_48 sendT1_2) (MATCH recvT0_48 sendT2_2) (MATCH recvT0_48 sendT3_2) (MATCH recvT0_48 sendT4_2) (MATCH recvT0_48 sendT5_2) (MATCH recvT0_48 sendT6_2) (MATCH recvT0_48 sendT7_2) (MATCH recvT0_48 sendT8_2) (MATCH recvT0_48 sendT9_2) (MATCH recvT0_48 sendT10_2) (MATCH recvT0_48 sendT11_2) (MATCH recvT0_48 sendT12_2) (MATCH recvT0_48 sendT13_2) (MATCH recvT0_48 sendT14_2) (MATCH recvT0_48 sendT15_2) )
(or (MATCH recvT0_78 sendT1_2) (MATCH recvT0_78 sendT2_2) (MATCH recvT0_78 sendT3_2) (MATCH recvT0_78 sendT4_2) (MATCH recvT0_78 sendT5_2) (MATCH recvT0_78 sendT6_2) (MATCH recvT0_78 sendT7_2) (MATCH recvT0_78 sendT8_2) (MATCH recvT0_78 sendT9_2) (MATCH recvT0_78 sendT10_2) (MATCH recvT0_78 sendT11_2) (MATCH recvT0_78 sendT12_2) (MATCH recvT0_78 sendT13_2) (MATCH recvT0_78 sendT14_2) (MATCH recvT0_78 sendT15_2) )
(or (MATCH recvT5_0 sendT0_15) )
(or (MATCH recvT12_0 sendT0_36) )
(or (MATCH recvT0_75 sendT1_2) (MATCH recvT0_75 sendT2_2) (MATCH recvT0_75 sendT3_2) (MATCH recvT0_75 sendT4_2) (MATCH recvT0_75 sendT5_2) (MATCH recvT0_75 sendT6_2) (MATCH recvT0_75 sendT7_2) (MATCH recvT0_75 sendT8_2) (MATCH recvT0_75 sendT9_2) (MATCH recvT0_75 sendT10_2) (MATCH recvT0_75 sendT11_2) (MATCH recvT0_75 sendT12_2) (MATCH recvT0_75 sendT13_2) (MATCH recvT0_75 sendT14_2) (MATCH recvT0_75 sendT15_2) )
(or (MATCH recvT7_0 sendT0_21) )
(or (MATCH recvT0_72 sendT1_2) (MATCH recvT0_72 sendT2_2) (MATCH recvT0_72 sendT3_2) (MATCH recvT0_72 sendT4_2) (MATCH recvT0_72 sendT5_2) (MATCH recvT0_72 sendT6_2) (MATCH recvT0_72 sendT7_2) (MATCH recvT0_72 sendT8_2) (MATCH recvT0_72 sendT9_2) (MATCH recvT0_72 sendT10_2) (MATCH recvT0_72 sendT11_2) (MATCH recvT0_72 sendT12_2) (MATCH recvT0_72 sendT13_2) (MATCH recvT0_72 sendT14_2) (MATCH recvT0_72 sendT15_2) )
(or (MATCH recvT14_0 sendT0_42) )
(or (MATCH recvT9_0 sendT0_27) )
(or (MATCH recvT0_57 sendT1_2) (MATCH recvT0_57 sendT2_2) (MATCH recvT0_57 sendT3_2) (MATCH recvT0_57 sendT4_2) (MATCH recvT0_57 sendT5_2) (MATCH recvT0_57 sendT6_2) (MATCH recvT0_57 sendT7_2) (MATCH recvT0_57 sendT8_2) (MATCH recvT0_57 sendT9_2) (MATCH recvT0_57 sendT10_2) (MATCH recvT0_57 sendT11_2) (MATCH recvT0_57 sendT12_2) (MATCH recvT0_57 sendT13_2) (MATCH recvT0_57 sendT14_2) (MATCH recvT0_57 sendT15_2) )
(or (MATCH recvT2_0 sendT0_6) )
(or (MATCH recvT0_87 sendT1_2) (MATCH recvT0_87 sendT2_2) (MATCH recvT0_87 sendT3_2) (MATCH recvT0_87 sendT4_2) (MATCH recvT0_87 sendT5_2) (MATCH recvT0_87 sendT6_2) (MATCH recvT0_87 sendT7_2) (MATCH recvT0_87 sendT8_2) (MATCH recvT0_87 sendT9_2) (MATCH recvT0_87 sendT10_2) (MATCH recvT0_87 sendT11_2) (MATCH recvT0_87 sendT12_2) (MATCH recvT0_87 sendT13_2) (MATCH recvT0_87 sendT14_2) (MATCH recvT0_87 sendT15_2) )
(or (MATCH recvT0_54 sendT1_2) (MATCH recvT0_54 sendT2_2) (MATCH recvT0_54 sendT3_2) (MATCH recvT0_54 sendT4_2) (MATCH recvT0_54 sendT5_2) (MATCH recvT0_54 sendT6_2) (MATCH recvT0_54 sendT7_2) (MATCH recvT0_54 sendT8_2) (MATCH recvT0_54 sendT9_2) (MATCH recvT0_54 sendT10_2) (MATCH recvT0_54 sendT11_2) (MATCH recvT0_54 sendT12_2) (MATCH recvT0_54 sendT13_2) (MATCH recvT0_54 sendT14_2) (MATCH recvT0_54 sendT15_2) )
(or (MATCH recvT0_84 sendT1_2) (MATCH recvT0_84 sendT2_2) (MATCH recvT0_84 sendT3_2) (MATCH recvT0_84 sendT4_2) (MATCH recvT0_84 sendT5_2) (MATCH recvT0_84 sendT6_2) (MATCH recvT0_84 sendT7_2) (MATCH recvT0_84 sendT8_2) (MATCH recvT0_84 sendT9_2) (MATCH recvT0_84 sendT10_2) (MATCH recvT0_84 sendT11_2) (MATCH recvT0_84 sendT12_2) (MATCH recvT0_84 sendT13_2) (MATCH recvT0_84 sendT14_2) (MATCH recvT0_84 sendT15_2) )
(or (MATCH recvT4_0 sendT0_12) )
(or (MATCH recvT0_51 sendT1_2) (MATCH recvT0_51 sendT2_2) (MATCH recvT0_51 sendT3_2) (MATCH recvT0_51 sendT4_2) (MATCH recvT0_51 sendT5_2) (MATCH recvT0_51 sendT6_2) (MATCH recvT0_51 sendT7_2) (MATCH recvT0_51 sendT8_2) (MATCH recvT0_51 sendT9_2) (MATCH recvT0_51 sendT10_2) (MATCH recvT0_51 sendT11_2) (MATCH recvT0_51 sendT12_2) (MATCH recvT0_51 sendT13_2) (MATCH recvT0_51 sendT14_2) (MATCH recvT0_51 sendT15_2) )
(or (MATCH recvT11_0 sendT0_33) )
(or (MATCH recvT0_81 sendT1_2) (MATCH recvT0_81 sendT2_2) (MATCH recvT0_81 sendT3_2) (MATCH recvT0_81 sendT4_2) (MATCH recvT0_81 sendT5_2) (MATCH recvT0_81 sendT6_2) (MATCH recvT0_81 sendT7_2) (MATCH recvT0_81 sendT8_2) (MATCH recvT0_81 sendT9_2) (MATCH recvT0_81 sendT10_2) (MATCH recvT0_81 sendT11_2) (MATCH recvT0_81 sendT12_2) (MATCH recvT0_81 sendT13_2) (MATCH recvT0_81 sendT14_2) (MATCH recvT0_81 sendT15_2) )
))

(assert (= task_0 0))
(assert (= result_0 0))
(assert (= answer_0 0))
(assert (= task_1 (+ task_0 1)))
(assert (= task_2 (+ task_1 1)))
(assert (= task_3 (+ task_2 1)))
(assert (= task_4 (+ task_3 1)))
(assert (= task_5 (+ task_4 1)))
(assert (= task_6 (+ task_5 1)))
(assert (= task_7 (+ task_6 1)))
(assert (= task_8 (+ task_7 1)))
(assert (= task_9 (+ task_8 1)))
(assert (= task_10 (+ task_9 1)))
(assert (= task_11 (+ task_10 1)))
(assert (= task_12 (+ task_11 1)))
(assert (= task_13 (+ task_12 1)))
(assert (= task_14 (+ task_13 1)))
(assert (= task_15 (+ task_14 1)))
(assert (= answer_1 (+ result_1 1)))
(assert (= answer_2 (+ result_2 1)))
(assert (= answer_3 (+ result_3 1)))
(assert (= answer_4 (+ result_4 1)))
(assert (= answer_5 (+ result_5 1)))
(assert (= answer_6 (+ result_6 1)))
(assert (= answer_7 (+ result_7 1)))
(assert (= answer_8 (+ result_8 1)))
(assert (= answer_9 (+ result_9 1)))
(assert (= answer_10 (+ result_10 1)))
(assert (= answer_11 (+ result_11 1)))
(assert (= answer_12 (+ result_12 1)))
(assert (= answer_13 (+ result_13 1)))
(assert (= answer_14 (+ result_14 1)))
(assert (= answer_15 (+ result_15 1)))

(assert (not ( and (= answer_15 0) )))

(check-sat)
